
(set-logic HORN)
(declare-datatypes ((Bool_234 0)) (((false_234) (true_234))))
(declare-fun diseqBool_107 (Bool_234 Bool_234) Bool)
(declare-fun isfalse_107 (Bool_234) Bool)
(declare-fun istrue_107 (Bool_234) Bool)
(assert (isfalse_107 false_234))
(assert (istrue_107 true_234))
(assert (diseqBool_107 false_234 true_234))
(assert (diseqBool_107 true_234 false_234))
(declare-fun and_234 (Bool_234 Bool_234 Bool_234) Bool)
(declare-fun or_238 (Bool_234 Bool_234 Bool_234) Bool)
(declare-fun hence_234 (Bool_234 Bool_234 Bool_234) Bool)
(declare-fun not_237 (Bool_234 Bool_234) Bool)
(assert (and_234 false_234 false_234 false_234))
(assert (and_234 false_234 true_234 false_234))
(assert (and_234 false_234 false_234 true_234))
(assert (and_234 true_234 true_234 true_234))
(assert (or_238 false_234 false_234 false_234))
(assert (or_238 true_234 true_234 false_234))
(assert (or_238 true_234 false_234 true_234))
(assert (or_238 true_234 true_234 true_234))
(assert (hence_234 true_234 false_234 false_234))
(assert (hence_234 false_234 true_234 false_234))
(assert (hence_234 true_234 false_234 true_234))
(assert (hence_234 true_234 true_234 true_234))
(assert (not_237 true_234 false_234))
(assert (not_237 false_234 true_234))
(declare-datatypes ((A_45 0)) (((X_42675) (Y_1535))))
(declare-fun diseqA_12 (A_45 A_45) Bool)
(declare-fun isX_15 (A_45) Bool)
(declare-fun isY_12 (A_45) Bool)
(assert (isX_15 X_42675))
(assert (isY_12 Y_1535))
(assert (diseqA_12 X_42675 Y_1535))
(assert (diseqA_12 Y_1535 X_42675))
(declare-datatypes ((R_290 0)) (((Nil_188) (Eps_24) (Atom_12 (projAtom_24 A_45)) (Plus_92 (projPlus_48 R_290) (projPlus_49 R_290)) (Seq_24 (projSeq_48 R_290) (projSeq_49 R_290)) (Star_12 (projStar_24 R_290)))))
(declare-fun diseqR_12 (R_290 R_290) Bool)
(declare-fun projAtom_25 (A_45 R_290) Bool)
(declare-fun projPlus_50 (R_290 R_290) Bool)
(declare-fun projPlus_51 (R_290 R_290) Bool)
(declare-fun projSeq_50 (R_290 R_290) Bool)
(declare-fun projSeq_51 (R_290 R_290) Bool)
(declare-fun projStar_25 (R_290 R_290) Bool)
(declare-fun isNil_188 (R_290) Bool)
(declare-fun isEps_12 (R_290) Bool)
(declare-fun isAtom_12 (R_290) Bool)
(declare-fun isPlus_12 (R_290) Bool)
(declare-fun isSeq_12 (R_290) Bool)
(declare-fun isStar_12 (R_290) Bool)
(assert (forall ((x_44764 A_45))
	(projAtom_25 x_44764 (Atom_12 x_44764))))
(assert (forall ((x_44766 R_290) (x_44767 R_290))
	(projPlus_50 x_44766 (Plus_92 x_44766 x_44767))))
(assert (forall ((x_44766 R_290) (x_44767 R_290))
	(projPlus_51 x_44767 (Plus_92 x_44766 x_44767))))
(assert (forall ((x_44769 R_290) (x_44770 R_290))
	(projSeq_50 x_44769 (Seq_24 x_44769 x_44770))))
(assert (forall ((x_44769 R_290) (x_44770 R_290))
	(projSeq_51 x_44770 (Seq_24 x_44769 x_44770))))
(assert (forall ((x_44772 R_290))
	(projStar_25 x_44772 (Star_12 x_44772))))
(assert (isNil_188 Nil_188))
(assert (isEps_12 Eps_24))
(assert (forall ((x_44774 A_45))
	(isAtom_12 (Atom_12 x_44774))))
(assert (forall ((x_44775 R_290) (x_44776 R_290))
	(isPlus_12 (Plus_92 x_44775 x_44776))))
(assert (forall ((x_44777 R_290) (x_44778 R_290))
	(isSeq_12 (Seq_24 x_44777 x_44778))))
(assert (forall ((x_44779 R_290))
	(isStar_12 (Star_12 x_44779))))
(assert (diseqR_12 Nil_188 Eps_24))
(assert (forall ((x_44780 A_45))
	(diseqR_12 Nil_188 (Atom_12 x_44780))))
(assert (forall ((x_44781 R_290) (x_44782 R_290))
	(diseqR_12 Nil_188 (Plus_92 x_44781 x_44782))))
(assert (forall ((x_44783 R_290) (x_44784 R_290))
	(diseqR_12 Nil_188 (Seq_24 x_44783 x_44784))))
(assert (forall ((x_44785 R_290))
	(diseqR_12 Nil_188 (Star_12 x_44785))))
(assert (diseqR_12 Eps_24 Nil_188))
(assert (forall ((x_44786 A_45))
	(diseqR_12 (Atom_12 x_44786) Nil_188)))
(assert (forall ((x_44787 R_290) (x_44788 R_290))
	(diseqR_12 (Plus_92 x_44787 x_44788) Nil_188)))
(assert (forall ((x_44789 R_290) (x_44790 R_290))
	(diseqR_12 (Seq_24 x_44789 x_44790) Nil_188)))
(assert (forall ((x_44791 R_290))
	(diseqR_12 (Star_12 x_44791) Nil_188)))
(assert (forall ((x_44792 A_45))
	(diseqR_12 Eps_24 (Atom_12 x_44792))))
(assert (forall ((x_44793 R_290) (x_44794 R_290))
	(diseqR_12 Eps_24 (Plus_92 x_44793 x_44794))))
(assert (forall ((x_44795 R_290) (x_44796 R_290))
	(diseqR_12 Eps_24 (Seq_24 x_44795 x_44796))))
(assert (forall ((x_44797 R_290))
	(diseqR_12 Eps_24 (Star_12 x_44797))))
(assert (forall ((x_44798 A_45))
	(diseqR_12 (Atom_12 x_44798) Eps_24)))
(assert (forall ((x_44799 R_290) (x_44800 R_290))
	(diseqR_12 (Plus_92 x_44799 x_44800) Eps_24)))
(assert (forall ((x_44801 R_290) (x_44802 R_290))
	(diseqR_12 (Seq_24 x_44801 x_44802) Eps_24)))
(assert (forall ((x_44803 R_290))
	(diseqR_12 (Star_12 x_44803) Eps_24)))
(assert (forall ((x_44804 A_45) (x_44805 R_290) (x_44806 R_290))
	(diseqR_12 (Atom_12 x_44804) (Plus_92 x_44805 x_44806))))
(assert (forall ((x_44807 A_45) (x_44808 R_290) (x_44809 R_290))
	(diseqR_12 (Atom_12 x_44807) (Seq_24 x_44808 x_44809))))
(assert (forall ((x_44810 A_45) (x_44811 R_290))
	(diseqR_12 (Atom_12 x_44810) (Star_12 x_44811))))
(assert (forall ((x_44812 R_290) (x_44813 R_290) (x_44814 A_45))
	(diseqR_12 (Plus_92 x_44812 x_44813) (Atom_12 x_44814))))
(assert (forall ((x_44815 R_290) (x_44816 R_290) (x_44817 A_45))
	(diseqR_12 (Seq_24 x_44815 x_44816) (Atom_12 x_44817))))
(assert (forall ((x_44818 R_290) (x_44819 A_45))
	(diseqR_12 (Star_12 x_44818) (Atom_12 x_44819))))
(assert (forall ((x_44820 R_290) (x_44821 R_290) (x_44822 R_290) (x_44823 R_290))
	(diseqR_12 (Plus_92 x_44820 x_44821) (Seq_24 x_44822 x_44823))))
(assert (forall ((x_44824 R_290) (x_44825 R_290) (x_44826 R_290))
	(diseqR_12 (Plus_92 x_44824 x_44825) (Star_12 x_44826))))
(assert (forall ((x_44827 R_290) (x_44828 R_290) (x_44829 R_290) (x_44830 R_290))
	(diseqR_12 (Seq_24 x_44827 x_44828) (Plus_92 x_44829 x_44830))))
(assert (forall ((x_44831 R_290) (x_44832 R_290) (x_44833 R_290))
	(diseqR_12 (Star_12 x_44831) (Plus_92 x_44832 x_44833))))
(assert (forall ((x_44834 R_290) (x_44835 R_290) (x_44836 R_290))
	(diseqR_12 (Seq_24 x_44834 x_44835) (Star_12 x_44836))))
(assert (forall ((x_44837 R_290) (x_44838 R_290) (x_44839 R_290))
	(diseqR_12 (Star_12 x_44837) (Seq_24 x_44838 x_44839))))
(assert (forall ((x_44840 A_45) (x_44841 A_45))
	(=> (diseqA_12 x_44840 x_44841) (diseqR_12 (Atom_12 x_44840) (Atom_12 x_44841)))))
(assert (forall ((x_44842 R_290) (x_44843 R_290) (x_44844 R_290) (x_44845 R_290))
	(=> (diseqR_12 x_44842 x_44844) (diseqR_12 (Plus_92 x_44842 x_44843) (Plus_92 x_44844 x_44845)))))
(assert (forall ((x_44842 R_290) (x_44843 R_290) (x_44844 R_290) (x_44845 R_290))
	(=> (diseqR_12 x_44843 x_44845) (diseqR_12 (Plus_92 x_44842 x_44843) (Plus_92 x_44844 x_44845)))))
(assert (forall ((x_44846 R_290) (x_44847 R_290) (x_44848 R_290) (x_44849 R_290))
	(=> (diseqR_12 x_44846 x_44848) (diseqR_12 (Seq_24 x_44846 x_44847) (Seq_24 x_44848 x_44849)))))
(assert (forall ((x_44846 R_290) (x_44847 R_290) (x_44848 R_290) (x_44849 R_290))
	(=> (diseqR_12 x_44847 x_44849) (diseqR_12 (Seq_24 x_44846 x_44847) (Seq_24 x_44848 x_44849)))))
(assert (forall ((x_44850 R_290) (x_44851 R_290))
	(=> (diseqR_12 x_44850 x_44851) (diseqR_12 (Star_12 x_44850) (Star_12 x_44851)))))
(declare-datatypes ((list_165 0)) (((nil_189) (cons_165 (head_330 A_45) (tail_330 list_165)))))
(declare-fun diseqlist_165 (list_165 list_165) Bool)
(declare-fun head_331 (A_45 list_165) Bool)
(declare-fun tail_331 (list_165 list_165) Bool)
(declare-fun isnil_189 (list_165) Bool)
(declare-fun iscons_165 (list_165) Bool)
(assert (forall ((x_44853 A_45) (x_44854 list_165))
	(head_331 x_44853 (cons_165 x_44853 x_44854))))
(assert (forall ((x_44853 A_45) (x_44854 list_165))
	(tail_331 x_44854 (cons_165 x_44853 x_44854))))
(assert (isnil_189 nil_189))
(assert (forall ((x_44856 A_45) (x_44857 list_165))
	(iscons_165 (cons_165 x_44856 x_44857))))
(assert (forall ((x_44858 A_45) (x_44859 list_165))
	(diseqlist_165 nil_189 (cons_165 x_44858 x_44859))))
(assert (forall ((x_44860 A_45) (x_44861 list_165))
	(diseqlist_165 (cons_165 x_44860 x_44861) nil_189)))
(assert (forall ((x_44862 A_45) (x_44863 list_165) (x_44864 A_45) (x_44865 list_165))
	(=> (diseqA_12 x_44862 x_44864) (diseqlist_165 (cons_165 x_44862 x_44863) (cons_165 x_44864 x_44865)))))
(assert (forall ((x_44862 A_45) (x_44863 list_165) (x_44864 A_45) (x_44865 list_165))
	(=> (diseqlist_165 x_44863 x_44865) (diseqlist_165 (cons_165 x_44862 x_44863) (cons_165 x_44864 x_44865)))))
(declare-fun seq_25 (R_290 R_290 R_290) Bool)
(assert (forall ((y_1536 R_290))
	(seq_25 Nil_188 Nil_188 y_1536)))
(assert (forall ((x_42677 R_290) (x_42919 A_45))
	(seq_25 Nil_188 (Atom_12 x_42919) Nil_188)))
(assert (forall ((x_42677 R_290))
	(seq_25 Nil_188 Eps_24 Nil_188)))
(assert (forall ((x_42677 R_290) (x_42920 R_290) (x_42921 R_290))
	(seq_25 Nil_188 (Plus_92 x_42920 x_42921) Nil_188)))
(assert (forall ((x_42677 R_290) (x_42922 R_290) (x_42923 R_290))
	(seq_25 Nil_188 (Seq_24 x_42922 x_42923) Nil_188)))
(assert (forall ((x_42677 R_290) (x_42924 R_290))
	(seq_25 Nil_188 (Star_12 x_42924) Nil_188)))
(assert (forall ((x_42678 R_290) (x_42733 A_45) (x_42677 R_290))
	(seq_25 (Atom_12 x_42733) Eps_24 (Atom_12 x_42733))))
(assert (forall ((x_42678 R_290) (x_42677 R_290))
	(seq_25 Eps_24 Eps_24 Eps_24)))
(assert (forall ((x_42678 R_290) (x_42734 R_290) (x_42735 R_290) (x_42677 R_290))
	(seq_25 (Plus_92 x_42734 x_42735) Eps_24 (Plus_92 x_42734 x_42735))))
(assert (forall ((x_42678 R_290) (x_42736 R_290) (x_42737 R_290) (x_42677 R_290))
	(seq_25 (Seq_24 x_42736 x_42737) Eps_24 (Seq_24 x_42736 x_42737))))
(assert (forall ((x_42678 R_290) (x_42738 R_290) (x_42677 R_290))
	(seq_25 (Star_12 x_42738) Eps_24 (Star_12 x_42738))))
(assert (forall ((x_42679 R_290) (x_42697 A_45) (x_42678 R_290) (x_42677 R_290))
	(seq_25 (Atom_12 x_42697) (Atom_12 x_42697) Eps_24)))
(assert (forall ((x_42679 R_290) (x_42698 R_290) (x_42699 R_290) (x_42678 R_290) (x_42677 R_290))
	(seq_25 (Plus_92 x_42698 x_42699) (Plus_92 x_42698 x_42699) Eps_24)))
(assert (forall ((x_42679 R_290) (x_42700 R_290) (x_42701 R_290) (x_42678 R_290) (x_42677 R_290))
	(seq_25 (Seq_24 x_42700 x_42701) (Seq_24 x_42700 x_42701) Eps_24)))
(assert (forall ((x_42679 R_290) (x_42702 R_290) (x_42678 R_290) (x_42677 R_290))
	(seq_25 (Star_12 x_42702) (Star_12 x_42702) Eps_24)))
(assert (forall ((x_42680 R_290) (x_42691 A_45) (x_42679 R_290) (x_42703 A_45) (x_42678 R_290) (x_42677 R_290))
	(seq_25 (Seq_24 (Atom_12 x_42703) (Atom_12 x_42691)) (Atom_12 x_42703) (Atom_12 x_42691))))
(assert (forall ((x_42680 R_290) (x_42691 A_45) (x_42679 R_290) (x_42704 R_290) (x_42705 R_290) (x_42678 R_290) (x_42677 R_290))
	(seq_25 (Seq_24 (Plus_92 x_42704 x_42705) (Atom_12 x_42691)) (Plus_92 x_42704 x_42705) (Atom_12 x_42691))))
(assert (forall ((x_42680 R_290) (x_42691 A_45) (x_42679 R_290) (x_42706 R_290) (x_42707 R_290) (x_42678 R_290) (x_42677 R_290))
	(seq_25 (Seq_24 (Seq_24 x_42706 x_42707) (Atom_12 x_42691)) (Seq_24 x_42706 x_42707) (Atom_12 x_42691))))
(assert (forall ((x_42680 R_290) (x_42691 A_45) (x_42679 R_290) (x_42708 R_290) (x_42678 R_290) (x_42677 R_290))
	(seq_25 (Seq_24 (Star_12 x_42708) (Atom_12 x_42691)) (Star_12 x_42708) (Atom_12 x_42691))))
(assert (forall ((x_42680 R_290) (x_42692 R_290) (x_42693 R_290) (x_42679 R_290) (x_42715 A_45) (x_42678 R_290) (x_42677 R_290))
	(seq_25 (Seq_24 (Atom_12 x_42715) (Plus_92 x_42692 x_42693)) (Atom_12 x_42715) (Plus_92 x_42692 x_42693))))
(assert (forall ((x_42680 R_290) (x_42692 R_290) (x_42693 R_290) (x_42679 R_290) (x_42716 R_290) (x_42717 R_290) (x_42678 R_290) (x_42677 R_290))
	(seq_25 (Seq_24 (Plus_92 x_42716 x_42717) (Plus_92 x_42692 x_42693)) (Plus_92 x_42716 x_42717) (Plus_92 x_42692 x_42693))))
(assert (forall ((x_42680 R_290) (x_42692 R_290) (x_42693 R_290) (x_42679 R_290) (x_42718 R_290) (x_42719 R_290) (x_42678 R_290) (x_42677 R_290))
	(seq_25 (Seq_24 (Seq_24 x_42718 x_42719) (Plus_92 x_42692 x_42693)) (Seq_24 x_42718 x_42719) (Plus_92 x_42692 x_42693))))
(assert (forall ((x_42680 R_290) (x_42692 R_290) (x_42693 R_290) (x_42679 R_290) (x_42720 R_290) (x_42678 R_290) (x_42677 R_290))
	(seq_25 (Seq_24 (Star_12 x_42720) (Plus_92 x_42692 x_42693)) (Star_12 x_42720) (Plus_92 x_42692 x_42693))))
(assert (forall ((x_42680 R_290) (x_42694 R_290) (x_42695 R_290) (x_42679 R_290) (x_42721 A_45) (x_42678 R_290) (x_42677 R_290))
	(seq_25 (Seq_24 (Atom_12 x_42721) (Seq_24 x_42694 x_42695)) (Atom_12 x_42721) (Seq_24 x_42694 x_42695))))
(assert (forall ((x_42680 R_290) (x_42694 R_290) (x_42695 R_290) (x_42679 R_290) (x_42722 R_290) (x_42723 R_290) (x_42678 R_290) (x_42677 R_290))
	(seq_25 (Seq_24 (Plus_92 x_42722 x_42723) (Seq_24 x_42694 x_42695)) (Plus_92 x_42722 x_42723) (Seq_24 x_42694 x_42695))))
(assert (forall ((x_42680 R_290) (x_42694 R_290) (x_42695 R_290) (x_42679 R_290) (x_42724 R_290) (x_42725 R_290) (x_42678 R_290) (x_42677 R_290))
	(seq_25 (Seq_24 (Seq_24 x_42724 x_42725) (Seq_24 x_42694 x_42695)) (Seq_24 x_42724 x_42725) (Seq_24 x_42694 x_42695))))
(assert (forall ((x_42680 R_290) (x_42694 R_290) (x_42695 R_290) (x_42679 R_290) (x_42726 R_290) (x_42678 R_290) (x_42677 R_290))
	(seq_25 (Seq_24 (Star_12 x_42726) (Seq_24 x_42694 x_42695)) (Star_12 x_42726) (Seq_24 x_42694 x_42695))))
(assert (forall ((x_42680 R_290) (x_42696 R_290) (x_42679 R_290) (x_42727 A_45) (x_42678 R_290) (x_42677 R_290))
	(seq_25 (Seq_24 (Atom_12 x_42727) (Star_12 x_42696)) (Atom_12 x_42727) (Star_12 x_42696))))
(assert (forall ((x_42680 R_290) (x_42696 R_290) (x_42679 R_290) (x_42728 R_290) (x_42729 R_290) (x_42678 R_290) (x_42677 R_290))
	(seq_25 (Seq_24 (Plus_92 x_42728 x_42729) (Star_12 x_42696)) (Plus_92 x_42728 x_42729) (Star_12 x_42696))))
(assert (forall ((x_42680 R_290) (x_42696 R_290) (x_42679 R_290) (x_42730 R_290) (x_42731 R_290) (x_42678 R_290) (x_42677 R_290))
	(seq_25 (Seq_24 (Seq_24 x_42730 x_42731) (Star_12 x_42696)) (Seq_24 x_42730 x_42731) (Star_12 x_42696))))
(assert (forall ((x_42680 R_290) (x_42696 R_290) (x_42679 R_290) (x_42732 R_290) (x_42678 R_290) (x_42677 R_290))
	(seq_25 (Seq_24 (Star_12 x_42732) (Star_12 x_42696)) (Star_12 x_42732) (Star_12 x_42696))))
(declare-fun plus_93 (R_290 R_290 R_290) Bool)
(assert (forall ((x_44679 R_290))
	(plus_93 x_44679 Nil_188 x_44679)))
(assert (forall ((x_42682 R_290) (x_43861 A_45))
	(plus_93 (Atom_12 x_43861) (Atom_12 x_43861) Nil_188)))
(assert (forall ((x_42682 R_290))
	(plus_93 Eps_24 Eps_24 Nil_188)))
(assert (forall ((x_42682 R_290) (x_43862 R_290) (x_43863 R_290))
	(plus_93 (Plus_92 x_43862 x_43863) (Plus_92 x_43862 x_43863) Nil_188)))
(assert (forall ((x_42682 R_290) (x_43864 R_290) (x_43865 R_290))
	(plus_93 (Seq_24 x_43864 x_43865) (Seq_24 x_43864 x_43865) Nil_188)))
(assert (forall ((x_42682 R_290) (x_43866 R_290))
	(plus_93 (Star_12 x_43866) (Star_12 x_43866) Nil_188)))
(assert (forall ((x_42683 R_290) (x_43855 A_45) (x_42682 R_290) (x_43867 A_45))
	(plus_93 (Plus_92 (Atom_12 x_43867) (Atom_12 x_43855)) (Atom_12 x_43867) (Atom_12 x_43855))))
(assert (forall ((x_42683 R_290) (x_43855 A_45) (x_42682 R_290))
	(plus_93 (Plus_92 Eps_24 (Atom_12 x_43855)) Eps_24 (Atom_12 x_43855))))
(assert (forall ((x_42683 R_290) (x_43855 A_45) (x_42682 R_290) (x_43868 R_290) (x_43869 R_290))
	(plus_93 (Plus_92 (Plus_92 x_43868 x_43869) (Atom_12 x_43855)) (Plus_92 x_43868 x_43869) (Atom_12 x_43855))))
(assert (forall ((x_42683 R_290) (x_43855 A_45) (x_42682 R_290) (x_43870 R_290) (x_43871 R_290))
	(plus_93 (Plus_92 (Seq_24 x_43870 x_43871) (Atom_12 x_43855)) (Seq_24 x_43870 x_43871) (Atom_12 x_43855))))
(assert (forall ((x_42683 R_290) (x_43855 A_45) (x_42682 R_290) (x_43872 R_290))
	(plus_93 (Plus_92 (Star_12 x_43872) (Atom_12 x_43855)) (Star_12 x_43872) (Atom_12 x_43855))))
(assert (forall ((x_42683 R_290) (x_42682 R_290) (x_43873 A_45))
	(plus_93 (Plus_92 (Atom_12 x_43873) Eps_24) (Atom_12 x_43873) Eps_24)))
(assert (forall ((x_42683 R_290) (x_42682 R_290))
	(plus_93 (Plus_92 Eps_24 Eps_24) Eps_24 Eps_24)))
(assert (forall ((x_42683 R_290) (x_42682 R_290) (x_43874 R_290) (x_43875 R_290))
	(plus_93 (Plus_92 (Plus_92 x_43874 x_43875) Eps_24) (Plus_92 x_43874 x_43875) Eps_24)))
(assert (forall ((x_42683 R_290) (x_42682 R_290) (x_43876 R_290) (x_43877 R_290))
	(plus_93 (Plus_92 (Seq_24 x_43876 x_43877) Eps_24) (Seq_24 x_43876 x_43877) Eps_24)))
(assert (forall ((x_42683 R_290) (x_42682 R_290) (x_43878 R_290))
	(plus_93 (Plus_92 (Star_12 x_43878) Eps_24) (Star_12 x_43878) Eps_24)))
(assert (forall ((x_42683 R_290) (x_43856 R_290) (x_43857 R_290) (x_42682 R_290) (x_43879 A_45))
	(plus_93 (Plus_92 (Atom_12 x_43879) (Plus_92 x_43856 x_43857)) (Atom_12 x_43879) (Plus_92 x_43856 x_43857))))
(assert (forall ((x_42683 R_290) (x_43856 R_290) (x_43857 R_290) (x_42682 R_290))
	(plus_93 (Plus_92 Eps_24 (Plus_92 x_43856 x_43857)) Eps_24 (Plus_92 x_43856 x_43857))))
(assert (forall ((x_42683 R_290) (x_43856 R_290) (x_43857 R_290) (x_42682 R_290) (x_43880 R_290) (x_43881 R_290))
	(plus_93 (Plus_92 (Plus_92 x_43880 x_43881) (Plus_92 x_43856 x_43857)) (Plus_92 x_43880 x_43881) (Plus_92 x_43856 x_43857))))
(assert (forall ((x_42683 R_290) (x_43856 R_290) (x_43857 R_290) (x_42682 R_290) (x_43882 R_290) (x_43883 R_290))
	(plus_93 (Plus_92 (Seq_24 x_43882 x_43883) (Plus_92 x_43856 x_43857)) (Seq_24 x_43882 x_43883) (Plus_92 x_43856 x_43857))))
(assert (forall ((x_42683 R_290) (x_43856 R_290) (x_43857 R_290) (x_42682 R_290) (x_43884 R_290))
	(plus_93 (Plus_92 (Star_12 x_43884) (Plus_92 x_43856 x_43857)) (Star_12 x_43884) (Plus_92 x_43856 x_43857))))
(assert (forall ((x_42683 R_290) (x_43858 R_290) (x_43859 R_290) (x_42682 R_290) (x_43885 A_45))
	(plus_93 (Plus_92 (Atom_12 x_43885) (Seq_24 x_43858 x_43859)) (Atom_12 x_43885) (Seq_24 x_43858 x_43859))))
(assert (forall ((x_42683 R_290) (x_43858 R_290) (x_43859 R_290) (x_42682 R_290))
	(plus_93 (Plus_92 Eps_24 (Seq_24 x_43858 x_43859)) Eps_24 (Seq_24 x_43858 x_43859))))
(assert (forall ((x_42683 R_290) (x_43858 R_290) (x_43859 R_290) (x_42682 R_290) (x_43886 R_290) (x_43887 R_290))
	(plus_93 (Plus_92 (Plus_92 x_43886 x_43887) (Seq_24 x_43858 x_43859)) (Plus_92 x_43886 x_43887) (Seq_24 x_43858 x_43859))))
(assert (forall ((x_42683 R_290) (x_43858 R_290) (x_43859 R_290) (x_42682 R_290) (x_43888 R_290) (x_43889 R_290))
	(plus_93 (Plus_92 (Seq_24 x_43888 x_43889) (Seq_24 x_43858 x_43859)) (Seq_24 x_43888 x_43889) (Seq_24 x_43858 x_43859))))
(assert (forall ((x_42683 R_290) (x_43858 R_290) (x_43859 R_290) (x_42682 R_290) (x_43890 R_290))
	(plus_93 (Plus_92 (Star_12 x_43890) (Seq_24 x_43858 x_43859)) (Star_12 x_43890) (Seq_24 x_43858 x_43859))))
(assert (forall ((x_42683 R_290) (x_43860 R_290) (x_42682 R_290) (x_43891 A_45))
	(plus_93 (Plus_92 (Atom_12 x_43891) (Star_12 x_43860)) (Atom_12 x_43891) (Star_12 x_43860))))
(assert (forall ((x_42683 R_290) (x_43860 R_290) (x_42682 R_290))
	(plus_93 (Plus_92 Eps_24 (Star_12 x_43860)) Eps_24 (Star_12 x_43860))))
(assert (forall ((x_42683 R_290) (x_43860 R_290) (x_42682 R_290) (x_43892 R_290) (x_43893 R_290))
	(plus_93 (Plus_92 (Plus_92 x_43892 x_43893) (Star_12 x_43860)) (Plus_92 x_43892 x_43893) (Star_12 x_43860))))
(assert (forall ((x_42683 R_290) (x_43860 R_290) (x_42682 R_290) (x_43894 R_290) (x_43895 R_290))
	(plus_93 (Plus_92 (Seq_24 x_43894 x_43895) (Star_12 x_43860)) (Seq_24 x_43894 x_43895) (Star_12 x_43860))))
(assert (forall ((x_42683 R_290) (x_43860 R_290) (x_42682 R_290) (x_43896 R_290))
	(plus_93 (Plus_92 (Star_12 x_43896) (Star_12 x_43860)) (Star_12 x_43896) (Star_12 x_43860))))
(declare-fun eqA_12 (Bool_234 A_45 A_45) Bool)
(assert (eqA_12 true_234 Y_1535 Y_1535))
(assert (eqA_12 false_234 Y_1535 X_42675))
(assert (eqA_12 false_234 X_42675 Y_1535))
(assert (eqA_12 true_234 X_42675 X_42675))
(declare-fun eps_25 (Bool_234 R_290) Bool)
(assert (forall ((y_1539 R_290))
	(eps_25 true_234 (Star_12 y_1539))))
(assert (forall ((x_44715 Bool_234) (x_44716 Bool_234) (x_44717 Bool_234) (r_291 R_290) (q_96 R_290))
	(=> (and (eps_25 x_44716 r_291) (eps_25 x_44717 q_96) (and_234 x_44715 x_44716 x_44717)) (eps_25 x_44715 (Seq_24 r_291 q_96)))))
(assert (forall ((x_44718 Bool_234) (x_44719 Bool_234) (x_44720 Bool_234) (p_265 R_290) (q_97 R_290))
	(=> (and (eps_25 x_44719 p_265) (eps_25 x_44720 q_97) (or_238 x_44718 x_44719 x_44720)) (eps_25 x_44718 (Plus_92 p_265 q_97)))))
(assert (eps_25 true_234 Eps_24))
(assert (forall ((x_42686 R_290) (x_43897 A_45))
	(eps_25 false_234 (Atom_12 x_43897))))
(assert (forall ((x_42686 R_290))
	(eps_25 false_234 Nil_188)))
(declare-fun epsR_12 (R_290 R_290) Bool)
(assert (forall ((x_42687 R_290))
	(=> (eps_25 true_234 x_42687) (epsR_12 Eps_24 x_42687))))
(assert (forall ((x_42687 R_290))
	(=> (eps_25 false_234 x_42687) (epsR_12 Nil_188 x_42687))))
(declare-fun step_12 (R_290 R_290 A_45) Bool)
(assert (forall ((x_44728 R_290) (x_44729 R_290) (p_266 R_290) (y_1540 A_45))
	(=> (and (step_12 x_44729 p_266 y_1540) (seq_25 x_44728 x_44729 (Star_12 p_266))) (step_12 x_44728 (Star_12 p_266) y_1540))))
(assert (forall ((x_44731 R_290) (x_44732 R_290) (x_44733 R_290) (x_44734 R_290) (x_44735 R_290) (x_44736 R_290) (r_292 R_290) (q_98 R_290) (y_1540 A_45))
	(=> (and (step_12 x_44732 r_292 y_1540) (seq_25 x_44733 x_44732 q_98) (epsR_12 x_44734 r_292) (step_12 x_44735 q_98 y_1540) (seq_25 x_44736 x_44734 x_44735) (plus_93 x_44731 x_44733 x_44736)) (step_12 x_44731 (Seq_24 r_292 q_98) y_1540))))
(assert (forall ((x_44738 R_290) (x_44739 R_290) (x_44740 R_290) (p_267 R_290) (q_99 R_290) (y_1540 A_45))
	(=> (and (step_12 x_44739 p_267 y_1540) (step_12 x_44740 q_99 y_1540) (plus_93 x_44738 x_44739 x_44740)) (step_12 x_44738 (Plus_92 p_267 q_99) y_1540))))
(assert (forall ((a_46 A_45) (y_1540 A_45))
	(=> (eqA_12 true_234 a_46 y_1540) (step_12 Eps_24 (Atom_12 a_46) y_1540))))
(assert (forall ((a_46 A_45) (y_1540 A_45))
	(=> (eqA_12 false_234 a_46 y_1540) (step_12 Nil_188 (Atom_12 a_46) y_1540))))
(assert (forall ((x_42689 R_290) (y_1540 A_45))
	(step_12 Nil_188 Eps_24 y_1540)))
(assert (forall ((x_42689 R_290) (y_1540 A_45))
	(step_12 Nil_188 Nil_188 y_1540)))
(declare-fun recognise_12 (Bool_234 R_290 list_165) Bool)
(assert (forall ((x_44748 Bool_234) (x_44749 R_290) (z_1394 A_45) (xs_455 list_165) (x_42690 R_290))
	(=> (and (step_12 x_44749 x_42690 z_1394) (recognise_12 x_44748 x_44749 xs_455)) (recognise_12 x_44748 x_42690 (cons_165 z_1394 xs_455)))))
(assert (forall ((x_44751 Bool_234) (x_42690 R_290))
	(=> (eps_25 x_44751 x_42690) (recognise_12 x_44751 x_42690 nil_189))))
(assert (forall ((x_44753 Bool_234) (x_44754 Bool_234) (p_268 R_290) (s_333 list_165))
	(=> (and true (diseqBool_107 x_44753 x_44754) (recognise_12 x_44753 (Star_12 p_268) s_333) (recognise_12 x_44754 (Plus_92 Eps_24 (Seq_24 p_268 (Star_12 p_268))) s_333)) false)))
(check-sat)
